submitit INFO (2023-04-30 19:21:33,004) - Starting with JobEnvironment(job_id=27531, hostname=cpunode2, local_rank=2(5), node=0(1), global_rank=2(5))
submitit INFO (2023-04-30 19:21:33,004) - Loading pickle: /h/30/pashootan/Matrix-Mult-CP/src/../logs/2x2x2_6_Apr30_19:21:31/27531_submitted.pkl
 ! --------------------------------------------------- CP Optimizer 22.1.1.0 --
 ! Satisfiability problem - 72 variables, 237 constraints
 ! TimeLimit            = 7200
 ! Workers              = 8
 ! LogPeriod            = 10000000
 ! RandomSeed           = 8458
 ! Initial process time : 0.00s (0.00s extraction + 0.00s propagation)
 !  . Log search space  : 107.1 (before), 107.1 (after)
 !  . Memory usage      : 575.6 kB (before), 575.6 kB (after)
 ! Using parallel search with 8 workers.
 ! ----------------------------------------------------------------------------
 !               Branches  Non-fixed    W       Branch decision
                   10000k          6    6        -1 != V4_2
                   10000k          7    2         0 != V4_3
                   10000k          6    4   F     0  = U5_2
                   10000k          6    5   F    -1  = U3_2
                   10000k          6    3   F     0  = V2_2
                   10000k          6    1        -1  = U5_3
                   10000k          6    7   F    -1  = V4_3
                   10000k          7    8   F    -1 != W2_1
                   20000k          6    6   F    -1  = W1_1
                   20000k          6    2   F     0  = V4_1
                   20000k          8    5         1 != U2_2
                   20000k          6    4   F     1 != U4_2
                   20000k          6    1   F    -1  = V3_2
                   20000k          9    3         0  = V0_1
                   20000k          9    7         1 != V5_0
                   20000k          8    8   F     0 != W2_0
                   30000k          6    4   F    -1 != V3_3
                   30000k          7    5         0 != V2_1
                   30000k          7    2         1  = U5_3
                   30000k          6    6   F     1 != V4_0
 ! Time = 330.06s, Average fail depth = 18, Memory usage = 142.2 MB
 !               Branches  Non-fixed    W       Branch decision
                   30000k          7    1        -1  = W1_3
                   30000k          9    3        -1 != W5_3
                   30000k          8    7   F     1 != V4_1
                   30000k          7    8   F    -1 != V5_2
                   40000k          6    4         1 != V0_0
                   40000k          6    2         1 != V2_1
 ! ----------------------------------------------------------------------------
 ! Search completed, model has no solution.
 ! ----------------------------------------------------------------------------
 ! Number of branches     : 317743409
 ! Number of fails        : 156747497
 ! Total memory usage     : 195.3 MB (195.3 MB CP Optimizer + 0.0 MB Concert)
 ! Time spent in solve    : 438.49s (438.49s engine + 0.00s extraction)
 ! Search speed (br. / s) : 724647.4
 ! ----------------------------------------------------------------------------
Infeasible
Saving stats to: /h/30/pashootan/Matrix-Mult-CP/logs/2x2x2_6_Apr30_19:21:31/27531_2_stats.csv
submitit INFO (2023-04-30 19:28:52,078) - Job completed successfully
